50
    1     6     5
    2    42    46
    3    36    46
    4    32    27
    5    17     8
    6    41    15
    7    19    31
    8    15    45
    9    12    43
   10    42    22
   11    41    45
   12     9    29
   13    41    46
   14    50     6
   15    41    28
   16    44    28
   17    24    45
   18    34    38
   19    32    11
   20    39    40
   21    39    27
   22    35    11
   23    42     6
   24     8    14
   25    35     6
   26     2    36
   27    40    28
   28     5    45
   29    36     5
   30    20    37
   31    35    33
   32    28     7
   33     4     7
   34    45    39
   35     7    50
   36    11    37
   37    15    12
   38     1    30
   39    10     6
   40     5     6
   41    28     1
   42    29    27
   43    21    40
   44    39    23
   45    20    39
   46    11     8
   47    16     9
   48     6    29
   49    28    19
   50     1     2
1035
